/*********************************************
 * OPL 12.6.0.0 Model
 * Author: m@rcel.xyz
 * Creation Date: Nov 2, 2020 at 1:16:10 PM
 *********************************************/

nTasks = 4;
nCPUs = 3;

rt = [261.27 560.89 310.51 105.80];
rc = [505.67 503.68 701.78];